\ Model amplgurobi
\ LP format - for model browsing. Use MPS format to capture full model detail.
Minimize
  6740 C0 + 3205 C1 + 4914 C2 + 32372 C3 + 1715 C4 + 6422 C5 + 81972 C6
   + 33391 C7 + 2021 C8 + 1460 C9 + 141015 C10 + 17684 C11 + 38208 C12
   + 1954 C13 + 17182 C14 + 25641 C15 + 7031 C16 + 78454 C17 + 9453 C18
   + 8597 C19 + 1581 C20 + 23171 C21 + 12088 C22 + 4883 C23 + 24064 C24
   + 10355 C25 + 5457 C26 + 26410 C27 + 29982 C28 + 2152 C29 + 23702 C30
   + 28499 C31 + 26544 C32 + 2481 C33 + 1995 C34 + 205925 C35 + 32069 C36
   + 42477 C37 + 5044 C38 + 36054 C39 + 35602 C40 + 10492 C41 + 92516 C42
   + 12441 C43 + 14113 C44 + 2030 C45 + 48702 C46 + 19877 C47 + 12852 C48
   + 39682 C49 + 7650 C50 + 3845 C51 + 19622 C52 + 21024 C53 + 1578 C54
   + 16197 C55 + 43134 C56 + 6371 C57 + 1869 C58 + 1402 C59 + 104130 C60
   + 15323 C61 + 15320 C62 + 4090 C63 + 25400 C64 + 25154 C65 + 6305 C66
   + 36644 C67 + 7754 C68 + 10501 C69 + 1326 C70 + 36073 C71 + 9670 C72
   + 10822 C73 + 24603 C74 + 5220 C75 + 2397 C76 + 13877 C77 + 29681 C78
   + 1062 C79 + 10383 C80 + 65768 C81 + 16771 C82 + 1325 C83 + 870 C84
   + 12638 C85 + 8430 C86 + 15833 C87 + 3428 C88 + 16298 C89 + 15764 C90
   + 2542 C91 + 27446 C92 + 3542 C93 + 7254 C94 + 694 C95 + 26167 C96
   + 3802 C97 + 8930 C98 + 11050 C99 + 5776 C100 + 2628 C101 + 9148 C102
   + 21275 C103 + 1250 C104 + 7484 C105 + 58806 C106 + 13572 C107
   + 1526 C108 + 1051 C109 + 46089 C110 + 1232 C111 + 11526 C112
   + 2290 C113 + 15829 C114 + 18422 C115 + 3918 C116 + 23562 C117
   + 5082 C118 + 7876 C119 + 925 C120 + 23494 C121 + 2252 C122 + 6798 C123
   + 13645 C124 + 6641 C125 + 3220 C126 + 14977 C127 + 20072 C128
   + 1364 C129 + 12333 C130 + 48555 C131 + 8862 C132 + 1646 C133
   + 1181 C134 + 66146 C135 + 9074 C136 + 5186 C137 + 3530 C138
   + 21148 C139 + 21256 C140 + 4743 C141 + 23035 C142 + 6006 C143
   + 9153 C144 + 1064 C145 + 30495 C146 + 5847 C147 + 9435 C148
   + 18976 C149 + 4375 C150 + 1839 C151 + 21848 C152 + 64293 C153
   + 1524 C154 + 15841 C155 + 138615 C156 + 51551 C157 + 1817 C158
   + 1133 C159 + 198301 C160 + 32781 C161 + 62653 C162 + 5554 C163
   + 7311 C164 + 18478 C165 + 6856 C166 + 126333 C167 + 10275 C168
   + 5467 C169 + 1629 C170 + 14919 C171 + 19650 C172 + 11943 C173
   + 20197 C174 + 3847 C175 + 2266 C176 + 35330 C177 + 80187 C178
   + 956 C179 + 27251 C180 + 155294 C181 + 57908 C182 + 1212 C183
   + 546 C184 + 220212 C185 + 41335 C186 + 71211 C187 + 8308 C188
   + 21710 C189 + 8136 C190 + 7119 C191 + 141375 C192 + 10215 C193
   + 6372 C194 + 1620 C195 + 33813 C196 + 23845 C197 + 18149 C198
   + 24685 C199 + 6429 C200 + 3118 C201 + 15112 C202 + 25921 C203
   + 1319 C204 + 12445 C205 + 53177 C206 + 10985 C207 + 1593 C208
   + 1135 C209 + 58178 C210 + 9255 C211 + 11563 C212 + 3559 C213
   + 20779 C214 + 20438 C215 + 4415 C216 + 11423 C217 + 5639 C218
   + 8870 C219 + 1008 C220 + 30656 C221 + 6261 C222 + 9496 C223
   + 17796 C224 + 5397 C225 + 2583 C226 + 23680 C227 + 69206 C228
   + 1789 C229 + 17769 C230 + 147325 C231 + 57377 C232 + 2099 C233
   + 1407 C234 + 241574 C235 + 37595 C236 + 70496 C237 + 5947 C238
   + 12569 C239 + 23300 C240 + 8789 C241 + 144881 C242 + 12438 C243
   + 6730 C244 + 1954 C245 + 11167 C246 + 22873 C247 + 11617 C248
   + 27157 C249 + 5220 C250 + 2297 C251 + 9828 C252 + 23097 C253
   + 1133 C254 + 7029 C255 + 56998 C256 + 12741 C257 + 1396 C258 + 929 C259
   + 25277 C260 + 2463 C261 + 10372 C262 + 2435 C263 + 14622 C264
   + 16271 C265 + 3062 C266 + 22846 C267 + 4124 C268 + 7312 C269 + 781 C270
   + 22334 C271 + 7106 C273 + 10541 C274 + 4183 C275 + 1779 C276
   + 19303 C277 + 48700 C278 + 1015 C279 + 13919 C280 + 102384 C281
   + 33596 C282 + 1275 C283 + 769 C284 + 97536 C285 + 19775 C286
   + 38482 C287 + 4898 C288 + 11931 C289 + 12620 C290 + 2712 C291
   + 74043 C292 + 5636 C293 + 5870 C294 + 932 C295 + 20982 C296
   + 10703 C297 + 10898 C298 + 5271 C299 + 7391 C300 + 5116 C301
   + 57473 C302 + 135171 C303 + 2006 C304 + 45475 C305 + 259515 C306
   + 105796 C307 + 1940 C308 + 1950 C309 + 461992 C310 + 79236 C311
   + 135275 C312 + 13135 C313 + 39914 C314 + 35095 C315 + 17458 C316
   + 274079 C317 + 21790 C318 + 9506 C319 + 3067 C320 + 56026 C321
   + 46945 C322 + 28226 C323 + 59259 C324 + 5039 C325 + 2189 C326
   + 11180 C327 + 40528 C328 + 1380 C329 + 6967 C330 + 96429 C331
   + 32221 C332 + 1664 C333 + 1145 C334 + 106122 C335 + 16713 C336
   + 36632 C337 + 3284 C338 + 11170 C339 + 19254 C340 + 5031 C341
   + 75212 C342 + 8074 C343 + 6696 C344 + 1298 C345 + 17381 C346
   + 10145 C347 + 7117 C348 + 14845 C349 + 10350 C350 + 5399 C351
   + 22957 C352 + 60516 C353 + 2513 C354 + 20327 C355 + 131920 C356
   + 60072 C357 + 2870 C358 + 2315 C359 + 288419 C360 + 41957 C361
   + 77570 C362 + 4635 C363 + 32480 C364 + 39868 C365 + 13094 C366
   + 159433 C367 + 16239 C368 + 13555 C369 + 2601 C370 + 40179 C371
   + 26882 C372 + 7725 C373 + 44597 C374 + 6052 C375 + 2838 C376
   + 15490 C377 + 52912 C378 + 1824 C379 + 10956 C380 + 118382 C381
   + 46528 C382 + 2136 C383 + 1501 C384 + 185456 C385 + 28589 C386
   + 55891 C387 + 4204 C388 + 14376 C389 + 24957 C390 + 8294 C391
   + 114834 C392 + 11727 C393 + 7707 C394 + 1847 C395 + 15979 C396
   + 17728 C397 + 7912 C398 + 26496 C399 + 12500 C400 + 12500 C401
   + 12500 C402 + 12500 C403 + 12500 C404 + 12500 C405 + 12500 C406
   + 12500 C407 + 12500 C408 + 12500 C409 + 12500 C411 + 12500 C412
   + 12500 C413 + 12500 C414 + 12500 C415
Subject To
 R0: C0 - 5495 C400 <= 0
 R1: C1 - 5495 C400 <= 0
 R2: C2 - 5495 C400 <= 0
 R3: C3 - 5495 C400 <= 0
 R4: C4 - 5495 C400 <= 0
 R5: C5 - 5495 C400 <= 0
 R6: C6 - 5495 C400 <= 0
 R7: C7 - 5495 C400 <= 0
 R8: C8 - 5495 C400 <= 0
 R9: C9 - 5495 C400 <= 0
 R10: C10 - 5495 C400 <= 0
 R11: C11 - 5495 C400 <= 0
 R12: C12 - 5495 C400 <= 0
 R13: C13 - 5495 C400 <= 0
 R14: C14 - 5495 C400 <= 0
 R15: C15 - 5495 C400 <= 0
 R16: C16 - 5495 C400 <= 0
 R17: C17 - 5495 C400 <= 0
 R18: C18 - 5495 C400 <= 0
 R19: C19 - 5495 C400 <= 0
 R20: C20 - 5495 C400 <= 0
 R21: C21 - 5495 C400 <= 0
 R22: C22 - 5495 C400 <= 0
 R23: C23 - 5495 C400 <= 0
 R24: C24 - 5495 C400 <= 0
 R25: C25 - 5495 C401 <= 0
 R26: C26 - 5495 C401 <= 0
 R27: C27 - 5495 C401 <= 0
 R28: C28 - 5495 C401 <= 0
 R29: C29 - 5495 C401 <= 0
 R30: C30 - 5495 C401 <= 0
 R31: C31 - 5495 C401 <= 0
 R32: C32 - 5495 C401 <= 0
 R33: C33 - 5495 C401 <= 0
 R34: C34 - 5495 C401 <= 0
 R35: C35 - 5495 C401 <= 0
 R36: C36 - 5495 C401 <= 0
 R37: C37 - 5495 C401 <= 0
 R38: C38 - 5495 C401 <= 0
 R39: C39 - 5495 C401 <= 0
 R40: C40 - 5495 C401 <= 0
 R41: C41 - 5495 C401 <= 0
 R42: C42 - 5495 C401 <= 0
 R43: C43 - 5495 C401 <= 0
 R44: C44 - 5495 C401 <= 0
 R45: C45 - 5495 C401 <= 0
 R46: C46 - 5495 C401 <= 0
 R47: C47 - 5495 C401 <= 0
 R48: C48 - 5495 C401 <= 0
 R49: C49 - 5495 C401 <= 0
 R50: C50 - 5495 C402 <= 0
 R51: C51 - 5495 C402 <= 0
 R52: C52 - 5495 C402 <= 0
 R53: C53 - 5495 C402 <= 0
 R54: C54 - 5495 C402 <= 0
 R55: C55 - 5495 C402 <= 0
 R56: C56 - 5495 C402 <= 0
 R57: C57 - 5495 C402 <= 0
 R58: C58 - 5495 C402 <= 0
 R59: C59 - 5495 C402 <= 0
 R60: C60 - 5495 C402 <= 0
 R61: C61 - 5495 C402 <= 0
 R62: C62 - 5495 C402 <= 0
 R63: C63 - 5495 C402 <= 0
 R64: C64 - 5495 C402 <= 0
 R65: C65 - 5495 C402 <= 0
 R66: C66 - 5495 C402 <= 0
 R67: C67 - 5495 C402 <= 0
 R68: C68 - 5495 C402 <= 0
 R69: C69 - 5495 C402 <= 0
 R70: C70 - 5495 C402 <= 0
 R71: C71 - 5495 C402 <= 0
 R72: C72 - 5495 C402 <= 0
 R73: C73 - 5495 C402 <= 0
 R74: C74 - 5495 C402 <= 0
 R75: C75 - 5495 C403 <= 0
 R76: C76 - 5495 C403 <= 0
 R77: C77 - 5495 C403 <= 0
 R78: C78 - 5495 C403 <= 0
 R79: C79 - 5495 C403 <= 0
 R80: C80 - 5495 C403 <= 0
 R81: C81 - 5495 C403 <= 0
 R82: C82 - 5495 C403 <= 0
 R83: C83 - 5495 C403 <= 0
 R84: C84 - 5495 C403 <= 0
 R85: C85 - 5495 C403 <= 0
 R86: C86 - 5495 C403 <= 0
 R87: C87 - 5495 C403 <= 0
 R88: C88 - 5495 C403 <= 0
 R89: C89 - 5495 C403 <= 0
 R90: C90 - 5495 C403 <= 0
 R91: C91 - 5495 C403 <= 0
 R92: C92 - 5495 C403 <= 0
 R93: C93 - 5495 C403 <= 0
 R94: C94 - 5495 C403 <= 0
 R95: C95 - 5495 C403 <= 0
 R96: C96 - 5495 C403 <= 0
 R97: C97 - 5495 C403 <= 0
 R98: C98 - 5495 C403 <= 0
 R99: C99 - 5495 C403 <= 0
 R100: C100 - 5495 C404 <= 0
 R101: C101 - 5495 C404 <= 0
 R102: C102 - 5495 C404 <= 0
 R103: C103 - 5495 C404 <= 0
 R104: C104 - 5495 C404 <= 0
 R105: C105 - 5495 C404 <= 0
 R106: C106 - 5495 C404 <= 0
 R107: C107 - 5495 C404 <= 0
 R108: C108 - 5495 C404 <= 0
 R109: C109 - 5495 C404 <= 0
 R110: C110 - 5495 C404 <= 0
 R111: C111 - 5495 C404 <= 0
 R112: C112 - 5495 C404 <= 0
 R113: C113 - 5495 C404 <= 0
 R114: C114 - 5495 C404 <= 0
 R115: C115 - 5495 C404 <= 0
 R116: C116 - 5495 C404 <= 0
 R117: C117 - 5495 C404 <= 0
 R118: C118 - 5495 C404 <= 0
 R119: C119 - 5495 C404 <= 0
 R120: C120 - 5495 C404 <= 0
 R121: C121 - 5495 C404 <= 0
 R122: C122 - 5495 C404 <= 0
 R123: C123 - 5495 C404 <= 0
 R124: C124 - 5495 C404 <= 0
 R125: C125 - 5495 C405 <= 0
 R126: C126 - 5495 C405 <= 0
 R127: C127 - 5495 C405 <= 0
 R128: C128 - 5495 C405 <= 0
 R129: C129 - 5495 C405 <= 0
 R130: C130 - 5495 C405 <= 0
 R131: C131 - 5495 C405 <= 0
 R132: C132 - 5495 C405 <= 0
 R133: C133 - 5495 C405 <= 0
 R134: C134 - 5495 C405 <= 0
 R135: C135 - 5495 C405 <= 0
 R136: C136 - 5495 C405 <= 0
 R137: C137 - 5495 C405 <= 0
 R138: C138 - 5495 C405 <= 0
 R139: C139 - 5495 C405 <= 0
 R140: C140 - 5495 C405 <= 0
 R141: C141 - 5495 C405 <= 0
 R142: C142 - 5495 C405 <= 0
 R143: C143 - 5495 C405 <= 0
 R144: C144 - 5495 C405 <= 0
 R145: C145 - 5495 C405 <= 0
 R146: C146 - 5495 C405 <= 0
 R147: C147 - 5495 C405 <= 0
 R148: C148 - 5495 C405 <= 0
 R149: C149 - 5495 C405 <= 0
 R150: C150 - 5495 C406 <= 0
 R151: C151 - 5495 C406 <= 0
 R152: C152 - 5495 C406 <= 0
 R153: C153 - 5495 C406 <= 0
 R154: C154 - 5495 C406 <= 0
 R155: C155 - 5495 C406 <= 0
 R156: C156 - 5495 C406 <= 0
 R157: C157 - 5495 C406 <= 0
 R158: C158 - 5495 C406 <= 0
 R159: C159 - 5495 C406 <= 0
 R160: C160 - 5495 C406 <= 0
 R161: C161 - 5495 C406 <= 0
 R162: C162 - 5495 C406 <= 0
 R163: C163 - 5495 C406 <= 0
 R164: C164 - 5495 C406 <= 0
 R165: C165 - 5495 C406 <= 0
 R166: C166 - 5495 C406 <= 0
 R167: C167 - 5495 C406 <= 0
 R168: C168 - 5495 C406 <= 0
 R169: C169 - 5495 C406 <= 0
 R170: C170 - 5495 C406 <= 0
 R171: C171 - 5495 C406 <= 0
 R172: C172 - 5495 C406 <= 0
 R173: C173 - 5495 C406 <= 0
 R174: C174 - 5495 C406 <= 0
 R175: C175 - 5495 C407 <= 0
 R176: C176 - 5495 C407 <= 0
 R177: C177 - 5495 C407 <= 0
 R178: C178 - 5495 C407 <= 0
 R179: C179 - 5495 C407 <= 0
 R180: C180 - 5495 C407 <= 0
 R181: C181 - 5495 C407 <= 0
 R182: C182 - 5495 C407 <= 0
 R183: C183 - 5495 C407 <= 0
 R184: C184 - 5495 C407 <= 0
 R185: C185 - 5495 C407 <= 0
 R186: C186 - 5495 C407 <= 0
 R187: C187 - 5495 C407 <= 0
 R188: C188 - 5495 C407 <= 0
 R189: C189 - 5495 C407 <= 0
 R190: C190 - 5495 C407 <= 0
 R191: C191 - 5495 C407 <= 0
 R192: C192 - 5495 C407 <= 0
 R193: C193 - 5495 C407 <= 0
 R194: C194 - 5495 C407 <= 0
 R195: C195 - 5495 C407 <= 0
 R196: C196 - 5495 C407 <= 0
 R197: C197 - 5495 C407 <= 0
 R198: C198 - 5495 C407 <= 0
 R199: C199 - 5495 C407 <= 0
 R200: C200 - 5495 C408 <= 0
 R201: C201 - 5495 C408 <= 0
 R202: C202 - 5495 C408 <= 0
 R203: C203 - 5495 C408 <= 0
 R204: C204 - 5495 C408 <= 0
 R205: C205 - 5495 C408 <= 0
 R206: C206 - 5495 C408 <= 0
 R207: C207 - 5495 C408 <= 0
 R208: C208 - 5495 C408 <= 0
 R209: C209 - 5495 C408 <= 0
 R210: C210 - 5495 C408 <= 0
 R211: C211 - 5495 C408 <= 0
 R212: C212 - 5495 C408 <= 0
 R213: C213 - 5495 C408 <= 0
 R214: C214 - 5495 C408 <= 0
 R215: C215 - 5495 C408 <= 0
 R216: C216 - 5495 C408 <= 0
 R217: C217 - 5495 C408 <= 0
 R218: C218 - 5495 C408 <= 0
 R219: C219 - 5495 C408 <= 0
 R220: C220 - 5495 C408 <= 0
 R221: C221 - 5495 C408 <= 0
 R222: C222 - 5495 C408 <= 0
 R223: C223 - 5495 C408 <= 0
 R224: C224 - 5495 C408 <= 0
 R225: C225 - 5495 C409 <= 0
 R226: C226 - 5495 C409 <= 0
 R227: C227 - 5495 C409 <= 0
 R228: C228 - 5495 C409 <= 0
 R229: C229 - 5495 C409 <= 0
 R230: C230 - 5495 C409 <= 0
 R231: C231 - 5495 C409 <= 0
 R232: C232 - 5495 C409 <= 0
 R233: C233 - 5495 C409 <= 0
 R234: C234 - 5495 C409 <= 0
 R235: C235 - 5495 C409 <= 0
 R236: C236 - 5495 C409 <= 0
 R237: C237 - 5495 C409 <= 0
 R238: C238 - 5495 C409 <= 0
 R239: C239 - 5495 C409 <= 0
 R240: C240 - 5495 C409 <= 0
 R241: C241 - 5495 C409 <= 0
 R242: C242 - 5495 C409 <= 0
 R243: C243 - 5495 C409 <= 0
 R244: C244 - 5495 C409 <= 0
 R245: C245 - 5495 C409 <= 0
 R246: C246 - 5495 C409 <= 0
 R247: C247 - 5495 C409 <= 0
 R248: C248 - 5495 C409 <= 0
 R249: C249 - 5495 C409 <= 0
 R250: C250 - 5495 C410 <= 0
 R251: C251 - 5495 C410 <= 0
 R252: C252 - 5495 C410 <= 0
 R253: C253 - 5495 C410 <= 0
 R254: C254 - 5495 C410 <= 0
 R255: C255 - 5495 C410 <= 0
 R256: C256 - 5495 C410 <= 0
 R257: C257 - 5495 C410 <= 0
 R258: C258 - 5495 C410 <= 0
 R259: C259 - 5495 C410 <= 0
 R260: C260 - 5495 C410 <= 0
 R261: C261 - 5495 C410 <= 0
 R262: C262 - 5495 C410 <= 0
 R263: C263 - 5495 C410 <= 0
 R264: C264 - 5495 C410 <= 0
 R265: C265 - 5495 C410 <= 0
 R266: C266 - 5495 C410 <= 0
 R267: C267 - 5495 C410 <= 0
 R268: C268 - 5495 C410 <= 0
 R269: C269 - 5495 C410 <= 0
 R270: C270 - 5495 C410 <= 0
 R271: C271 - 5495 C410 <= 0
 R272: C272 - 5495 C410 <= 0
 R273: C273 - 5495 C410 <= 0
 R274: C274 - 5495 C410 <= 0
 R275: C275 - 5495 C411 <= 0
 R276: C276 - 5495 C411 <= 0
 R277: C277 - 5495 C411 <= 0
 R278: C278 - 5495 C411 <= 0
 R279: C279 - 5495 C411 <= 0
 R280: C280 - 5495 C411 <= 0
 R281: C281 - 5495 C411 <= 0
 R282: C282 - 5495 C411 <= 0
 R283: C283 - 5495 C411 <= 0
 R284: C284 - 5495 C411 <= 0
 R285: C285 - 5495 C411 <= 0
 R286: C286 - 5495 C411 <= 0
 R287: C287 - 5495 C411 <= 0
 R288: C288 - 5495 C411 <= 0
 R289: C289 - 5495 C411 <= 0
 R290: C290 - 5495 C411 <= 0
 R291: C291 - 5495 C411 <= 0
 R292: C292 - 5495 C411 <= 0
 R293: C293 - 5495 C411 <= 0
 R294: C294 - 5495 C411 <= 0
 R295: C295 - 5495 C411 <= 0
 R296: C296 - 5495 C411 <= 0
 R297: C297 - 5495 C411 <= 0
 R298: C298 - 5495 C411 <= 0
 R299: C299 - 5495 C411 <= 0
 R300: C300 - 5495 C412 <= 0
 R301: C301 - 5495 C412 <= 0
 R302: C302 - 5495 C412 <= 0
 R303: C303 - 5495 C412 <= 0
 R304: C304 - 5495 C412 <= 0
 R305: C305 - 5495 C412 <= 0
 R306: C306 - 5495 C412 <= 0
 R307: C307 - 5495 C412 <= 0
 R308: C308 - 5495 C412 <= 0
 R309: C309 - 5495 C412 <= 0
 R310: C310 - 5495 C412 <= 0
 R311: C311 - 5495 C412 <= 0
 R312: C312 - 5495 C412 <= 0
 R313: C313 - 5495 C412 <= 0
 R314: C314 - 5495 C412 <= 0
 R315: C315 - 5495 C412 <= 0
 R316: C316 - 5495 C412 <= 0
 R317: C317 - 5495 C412 <= 0
 R318: C318 - 5495 C412 <= 0
 R319: C319 - 5495 C412 <= 0
 R320: C320 - 5495 C412 <= 0
 R321: C321 - 5495 C412 <= 0
 R322: C322 - 5495 C412 <= 0
 R323: C323 - 5495 C412 <= 0
 R324: C324 - 5495 C412 <= 0
 R325: C325 - 5495 C413 <= 0
 R326: C326 - 5495 C413 <= 0
 R327: C327 - 5495 C413 <= 0
 R328: C328 - 5495 C413 <= 0
 R329: C329 - 5495 C413 <= 0
 R330: C330 - 5495 C413 <= 0
 R331: C331 - 5495 C413 <= 0
 R332: C332 - 5495 C413 <= 0
 R333: C333 - 5495 C413 <= 0
 R334: C334 - 5495 C413 <= 0
 R335: C335 - 5495 C413 <= 0
 R336: C336 - 5495 C413 <= 0
 R337: C337 - 5495 C413 <= 0
 R338: C338 - 5495 C413 <= 0
 R339: C339 - 5495 C413 <= 0
 R340: C340 - 5495 C413 <= 0
 R341: C341 - 5495 C413 <= 0
 R342: C342 - 5495 C413 <= 0
 R343: C343 - 5495 C413 <= 0
 R344: C344 - 5495 C413 <= 0
 R345: C345 - 5495 C413 <= 0
 R346: C346 - 5495 C413 <= 0
 R347: C347 - 5495 C413 <= 0
 R348: C348 - 5495 C413 <= 0
 R349: C349 - 5495 C413 <= 0
 R350: C350 - 5495 C414 <= 0
 R351: C351 - 5495 C414 <= 0
 R352: C352 - 5495 C414 <= 0
 R353: C353 - 5495 C414 <= 0
 R354: C354 - 5495 C414 <= 0
 R355: C355 - 5495 C414 <= 0
 R356: C356 - 5495 C414 <= 0
 R357: C357 - 5495 C414 <= 0
 R358: C358 - 5495 C414 <= 0
 R359: C359 - 5495 C414 <= 0
 R360: C360 - 5495 C414 <= 0
 R361: C361 - 5495 C414 <= 0
 R362: C362 - 5495 C414 <= 0
 R363: C363 - 5495 C414 <= 0
 R364: C364 - 5495 C414 <= 0
 R365: C365 - 5495 C414 <= 0
 R366: C366 - 5495 C414 <= 0
 R367: C367 - 5495 C414 <= 0
 R368: C368 - 5495 C414 <= 0
 R369: C369 - 5495 C414 <= 0
 R370: C370 - 5495 C414 <= 0
 R371: C371 - 5495 C414 <= 0
 R372: C372 - 5495 C414 <= 0
 R373: C373 - 5495 C414 <= 0
 R374: C374 - 5495 C414 <= 0
 R375: C375 - 5495 C415 <= 0
 R376: C376 - 5495 C415 <= 0
 R377: C377 - 5495 C415 <= 0
 R378: C378 - 5495 C415 <= 0
 R379: C379 - 5495 C415 <= 0
 R380: C380 - 5495 C415 <= 0
 R381: C381 - 5495 C415 <= 0
 R382: C382 - 5495 C415 <= 0
 R383: C383 - 5495 C415 <= 0
 R384: C384 - 5495 C415 <= 0
 R385: C385 - 5495 C415 <= 0
 R386: C386 - 5495 C415 <= 0
 R387: C387 - 5495 C415 <= 0
 R388: C388 - 5495 C415 <= 0
 R389: C389 - 5495 C415 <= 0
 R390: C390 - 5495 C415 <= 0
 R391: C391 - 5495 C415 <= 0
 R392: C392 - 5495 C415 <= 0
 R393: C393 - 5495 C415 <= 0
 R394: C394 - 5495 C415 <= 0
 R395: C395 - 5495 C415 <= 0
 R396: C396 - 5495 C415 <= 0
 R397: C397 - 5495 C415 <= 0
 R398: C398 - 5495 C415 <= 0
 R399: C399 - 5495 C415 <= 0
 R400: C0 + C25 + C50 + C75 + C100 + C125 + C150 + C175 + C200 + C225
   + C250 + C275 + C300 + C325 + C350 + C375 = 146
 R401: C1 + C26 + C51 + C76 + C101 + C126 + C151 + C176 + C201 + C226
   + C251 + C276 + C301 + C326 + C351 + C376 = 87
 R402: C2 + C27 + C52 + C77 + C102 + C127 + C152 + C177 + C202 + C227
   + C252 + C277 + C302 + C327 + C352 + C377 = 672
 R403: C3 + C28 + C53 + C78 + C103 + C128 + C153 + C178 + C203 + C228
   + C253 + C278 + C303 + C328 + C353 + C378 = 1337
 R404: C4 + C29 + C54 + C79 + C104 + C129 + C154 + C179 + C204 + C229
   + C254 + C279 + C304 + C329 + C354 + C379 = 31
 R405: C5 + C30 + C55 + C80 + C105 + C130 + C155 + C180 + C205 + C230
   + C255 + C280 + C305 + C330 + C355 + C380 = 559
 R406: C6 + C31 + C56 + C81 + C106 + C131 + C156 + C181 + C206 + C231
   + C256 + C281 + C306 + C331 + C356 + C381 = 2370
 R407: C7 + C32 + C57 + C82 + C107 + C132 + C157 + C182 + C207 + C232
   + C257 + C282 + C307 + C332 + C357 + C382 = 1089
 R408: C8 + C33 + C58 + C83 + C108 + C133 + C158 + C183 + C208 + C233
   + C258 + C283 + C308 + C333 + C358 + C383 = 33
 R409: C9 + C34 + C59 + C84 + C109 + C134 + C159 + C184 + C209 + C234
   + C259 + C284 + C309 + C334 + C359 + C384 = 32
 R410: C10 + C35 + C60 + C85 + C110 + C135 + C160 + C185 + C210 + C235
   + C260 + C285 + C310 + C335 + C360 + C385 = 5495
 R411: C11 + C36 + C61 + C86 + C111 + C136 + C161 + C186 + C211 + C236
   + C261 + C286 + C311 + C336 + C361 + C386 = 904
 R412: C12 + C37 + C62 + C87 + C112 + C137 + C162 + C187 + C212 + C237
   + C262 + C287 + C312 + C337 + C362 + C387 = 1466
 R413: C13 + C38 + C63 + C88 + C113 + C138 + C163 + C188 + C213 + C238
   + C263 + C288 + C313 + C338 + C363 + C388 = 143
 R414: C14 + C39 + C64 + C89 + C114 + C139 + C164 + C189 + C214 + C239
   + C264 + C289 + C314 + C339 + C364 + C389 = 615
 R415: C15 + C40 + C65 + C90 + C115 + C140 + C165 + C190 + C215 + C240
   + C265 + C290 + C315 + C340 + C365 + C390 = 564
 R416: C16 + C41 + C66 + C91 + C116 + C141 + C166 + C191 + C216 + C241
   + C266 + C291 + C316 + C341 + C366 + C391 = 226
 R417: C17 + C42 + C67 + C92 + C117 + C142 + C167 + C192 + C217 + C242
   + C267 + C292 + C317 + C342 + C367 + C392 = 3016
 R418: C18 + C43 + C68 + C93 + C118 + C143 + C168 + C193 + C218 + C243
   + C268 + C293 + C318 + C343 + C368 + C393 = 253
 R419: C19 + C44 + C69 + C94 + C119 + C144 + C169 + C194 + C219 + C244
   + C269 + C294 + C319 + C344 + C369 + C394 = 195
 R420: C20 + C45 + C70 + C95 + C120 + C145 + C170 + C195 + C220 + C245
   + C270 + C295 + C320 + C345 + C370 + C395 = 38
 R421: C21 + C46 + C71 + C96 + C121 + C146 + C171 + C196 + C221 + C246
   + C271 + C296 + C321 + C346 + C371 + C396 = 807
 R422: C22 + C47 + C72 + C97 + C122 + C147 + C172 + C197 + C222 + C247
   + C272 + C297 + C322 + C347 + C372 + C397 = 551
 R423: C23 + C48 + C73 + C98 + C123 + C148 + C173 + C198 + C223 + C248
   + C273 + C298 + C323 + C348 + C373 + C398 = 304
 R424: C24 + C49 + C74 + C99 + C124 + C149 + C174 + C199 + C224 + C249
   + C274 + C299 + C324 + C349 + C374 + C399 = 814
Bounds
 C400 <= 1
 C401 <= 1
 C402 <= 1
 C403 <= 1
 C404 <= 1
 C405 <= 1
 C406 <= 1
 C407 <= 1
 C408 <= 1
 C409 <= 1
 C410 <= 1
 C411 <= 1
 C412 <= 1
 C413 <= 1
 C414 <= 1
 C415 <= 1
Generals
 C400 C401 C402 C403 C404 C405 C406 C407 C408 C409 C410 C411 C412 C413 C414
 C415
End
